%%% static parameters %%%
timespan = 1;
Fact = [4];
Distr1 = [15];
Distr2 = [20];
Clients_N = [300];
Demand_W = [15];
Lt0 = [4];
Lt1 = [4];
SS_ = [0.85];
DS_D = [15];
K = [200];
MA = [500];
%%% dynamic parameters %%%
lost_ratio_sales_ret_th = 0.09488659745210776;
lost_ratio_sales_ret_w = 33;
lost_ratio_sales_dis_th = 0.06458109445580389;
lost_ratio_sales_dis_w = 11;
lost_ratio_sales_fac_th = 0.027023608774489328;
lost_ratio_sales_fac_w = 66;
stock_customer_MA_mean_relative_th = 0.6473219949630824;
stock_customer_MA_mean_relative_w = 58;
stock_distributor_MA_mean_relative_th = 0.9377950405023099;
stock_distributor_MA_mean_relative_w = 21;
stock_retailer_MA_mean_relative_th = 0.9825920477549953;
stock_retailer_MA_mean_relative_w = 10;
stock_factory_MA_mean_relative_th = 0.7996855718842399;
stock_factory_MA_mean_relative_w = 52;
